\ENCODING=ISO-8859-1
\Problem name: inst_14_cut_n14

Maximize
 obj1: 88 x0 + 43 x1 + 68 x2 + 44 x3
Subject To
 c0:     43 x0 + 78 x1 + 75 x2 + 85 x3 + s0 <= 106
 c1:     89 x0 + 29 x1 + 38 x2 + 58 x3 + s1 <= 95
 c2:     60 x0 + 29 x1 + 35 x2 + 18 x3 + s2 <= 11
 c3:     57 x0 + 76 x1 + 86 x2 + 80 x3 + s3 <= 176
 c4:     76 x0 + 17 x1 + 79 x2 + 16 x3 + s4 <= 171
 c5:     59 x0 + 72 x1 + 51 x2 + 61 x3 + s5 <= 166
 c6:     12 x0 + 62 x1 + 47 x2 + 95 x3 + s6 <= 224
 c7:     51 x0 + 98 x1 + 77 x2 + 32 x3 + s7 <= 169
 c8:     15 x0 + 81 x1 + 66 x2 + 91 x3 + s8 <= 284
 c9:     14 x0 + 93 x1 + 29 x2 + 79 x3 + s9 <= 110
 c10:    66 x0 + 77 x1 + 4 x2 + 59 x3 + s10 <= 19
 c11:    35 x0 + 81 x1 + 49 x2 + 69 x3 + s11 <= 185
 c12:    73 x0 + 64 x1 + 64 x2 + 42 x3 + s12 <= 23
 c13:    88 x0 + 91 x1 + 19 x2 + 12 x3 + s13 <= 279
 cut_1:  69 x0 + 41 x1 + 34 x2 + 28 x3 <= 13
 cut_2:  80 x0 + 53 x1 + 36 x2 + 37 x3 <= 17
 cut_3:  61 x0 + 30 x1 + 35 x2 + 19 x3 <= 11
 cut_4:  61 x0 + 46 x1 + 23 x2 + 33 x3 <= 13
 cut_5:  70 x0 + 53 x1 + 26 x2 + 38 x3 <= 15
 cut_6:  62 x0 + 47 x1 + 23 x2 + 34 x3 <= 14
 cut_7:  97 x0 + 81 x1 + 31 x2 + 59 x3 <= 23
 cut_8:  55 x0 + 33 x1 + 28 x2 + 22 x3 <= 11
 cut_9:  79 x0 + 83 x1 + 12 x2 + 63 x3 <= 21
 cut_10: 75 x0 + 76 x1 + 14 x2 + 57 x3 <= 19
 cut_11: 67 x0 + 77 x1 + 5 x2 + 59 x3 <= 19
 cut_12: 56 x0 + 37 x1 + 25 x2 + 26 x3 <= 11
 cut_13: 66 x0 + 70 x1 + 10 x2 + 53 x3 <= 18
 cut_14: 91 x0 + 87 x1 + 20 x2 + 65 x3 <= 23
Bounds
 0 <= x0 <= 1
 0 <= x1 <= 1
 0 <= x2 <= 1
 0 <= x3 <= 1
End
